
===== New CPLEX run =====
Instance: /home/yorig/tuner/mpils-tests/instances/miplib/medium-1/momentum1.mps
Config: /scratch/yorig/mpils-results-grid-ticks-10000/medium-1/16proc/seed-5/6_momentum1_seed-5_20260425_215516/expansion/config_param_CPXPARAM_MIP_Strategy_VariableSelect_4_iter_1.prm
========================

Selected objective sense:  MINIMIZE
Selected objective  name:  MINIMIZE
Selected RHS        name:  rhs
Selected bound      name:  bnd
Version identifier: 22.1.2.0 | 2024-11-26 | 0edbb82fd
CPXPARAM_Threads                                 8
CPXPARAM_Parallel                                1
CPXPARAM_MIP_Cuts_Cliques                        -1
CPXPARAM_MIP_Strategy_VariableSelect             4
CPXPARAM_MIP_Cuts_FlowCovers                     2
CPXPARAM_MIP_Cuts_Implied                        1
CPXPARAM_MIP_Limits_GomoryCand                   25
CPXPARAM_MIP_Cuts_Gomory                         1
CPXPARAM_MIP_Cuts_PathCut                        1
CPXPARAM_MIP_Cuts_Disjunctive                    -1
CPXPARAM_Emphasis_MIP                            4
CPXPARAM_DetTimeLimit                            10000
Tried aggregator 3 times.
MIP Presolve eliminated 30810 rows and 1362 columns.
MIP Presolve modified 22293 coefficients.
Aggregator did 232 substitutions.
Reduced MIP has 11638 rows, 3580 columns, and 46688 nonzeros.
Reduced MIP has 1625 binaries, 0 generals, 0 SOSs, and 0 indicators.
Presolve time = 0.10 sec. (139.58 ticks)
Found incumbent of value 533875.101733 after 0.12 sec. (154.72 ticks)
Probing fixed 392 vars, tightened 1078 bounds.
Probing changed sense of 113 constraints.
Probing time = 0.08 sec. (90.30 ticks)
Cover probing fixed 0 vars, tightened 267 bounds.
Tried aggregator 2 times.
MIP Presolve eliminated 3295 rows and 847 columns.
MIP Presolve modified 7082 coefficients.
Aggregator did 11 substitutions.
Reduced MIP has 8332 rows, 2722 columns, and 31418 nonzeros.
Reduced MIP has 1168 binaries, 0 generals, 0 SOSs, and 0 indicators.
Presolve time = 0.04 sec. (44.43 ticks)
Probing fixed 1 vars, tightened 256 bounds.
Probing time = 0.05 sec. (44.20 ticks)
Cover probing fixed 0 vars, tightened 190 bounds.
Tried aggregator 1 time.
Detecting symmetries...
MIP Presolve eliminated 26 rows and 2 columns.
MIP Presolve modified 5059 coefficients.
Reduced MIP has 8306 rows, 2720 columns, and 31355 nonzeros.
Reduced MIP has 1167 binaries, 0 generals, 0 SOSs, and 0 indicators.
Presolve time = 0.02 sec. (22.06 ticks)
Probing fixed 0 vars, tightened 90 bounds.
Probing time = 0.04 sec. (40.55 ticks)
Cover probing fixed 0 vars, tightened 69 bounds.
Clique table members: 18692.
MIP emphasis: hidden feasible solutions.
MIP search method: dynamic search.
Parallel mode: deterministic, using up to 8 threads.
Root relaxation solution time = 0.12 sec. (144.31 ticks)

        Nodes                                         Cuts/
   Node  Left     Objective  IInf  Best Integer    Best Bound    ItCnt     Gap

*     0+    0                       533875.1017    44880.8652            91.59%
*     0+    0                       533847.9795    44880.8652            91.59%
*     0+    0                       333826.8649    44880.8652            86.56%
*     0+    0                       333809.0666    44880.8652            86.55%
      0     0    79213.0345   216   333809.0666    79213.0345     1531   76.27%
      0     0    96254.6467   297   333809.0666     Cuts: 174     2064   71.16%
      0     0    96260.5560   272   333809.0666      Cuts: 81     2379   71.16%
      0     0    96261.7287   286   333809.0666      Cuts: 29     2510   71.16%
*     0+    0                       320982.4254    96261.7287            70.01%
      0     0  -1.00000e+75     0   320982.4254    96261.7287     2510   70.01%
      0     0    96272.4517   273   320982.4254      Cuts: 11     2614   70.01%
      0     0    96274.5936   256   320982.4254      Cuts: 25     2665   70.01%
Detecting symmetries...
      0     0    96276.5688   258   320982.4254      Cuts: 28     2717   70.01%
Detecting symmetries...
      0     2    96276.5688   258   320982.4254    96276.5688     2717   70.01%
Elapsed time = 3.33 sec. (5383.03 ticks, tree = 0.02 MB, solutions = 5)
     24    19    96304.3354   252   320982.4254    96287.3917     4910   70.00%
     45    21   101512.6196   245   320982.4254    96287.3917     6050   70.00%
     62    53    96330.1022   274   320982.4254    96287.3917    13458   70.00%
     83    80    97340.5147   250   320982.4254    96287.3917    17135   70.00%
    109    96   115591.8952   100   320982.4254    96287.3917    19541   70.00%
    152   126   102799.5546   180   320982.4254    96287.3917    23821   70.00%
    200   148   102813.2799   235   320982.4254    96287.3917    27207   70.00%
    233   207   102742.1419   170   320982.4254    96287.3917    34557   70.00%
    278   249   109179.5651    79   320982.4254    96287.3917    36929   70.00%
*   354   302      integral     0   122106.9412    96287.3917    45774   21.15%
*   355   301      integral     0   122094.8359    96287.3917    45776   21.14%
    553   432   122081.9965   101   122094.8359    96287.3917    54886   21.14%
Elapsed time = 5.46 sec. (8584.88 ticks, tree = 1.14 MB, solutions = 7)
*   564+  408                       115654.5736    96287.3917            16.75%
    707   462    96293.0190   243   115654.5736    96293.0492    70188   16.74%
*   749+  445                       109222.1436    96293.0492            11.84%
*   770+  445                       109221.7700    96293.8598            11.84%
*   772+  445                       109221.6677    96293.8598            11.84%
*   779+  445                       109198.5250    96293.8598            11.82%

Implied bound cuts applied:  2
Flow cuts applied:  120
Flow path cuts applied:  0
Zero-half cuts applied:  41
Gomory fractional cuts applied:  4

Root node processing (before b&c):
  Real time             =    3.30 sec. (5351.34 ticks)
Parallel b&c, 8 threads:
  Real time             =    3.21 sec. (4657.59 ticks)
  Sync time (average)   =    0.45 sec.
  Wait time (average)   =    0.00 sec.
                          ------------
Total (root+branch&cut) =    6.51 sec. (10008.93 ticks)
Gap: 11.82%
Upper bound: 109199
Lower bound: 96293.9
End of CPLEX run. Time: 6.50849 seconds

===== New CPLEX run =====
Instance: /home/yorig/tuner/mpils-tests/instances/miplib/medium-1/momentum1.mps
Config: /scratch/yorig/mpils-results-grid-ticks-10000/medium-1/16proc/seed-5/6_momentum1_seed-5_20260425_215516/expansion/config_param_CPXPARAM_MIP_Strategy_NodeSelect_0_iter_1.prm
========================

Selected objective sense:  MINIMIZE
Selected objective  name:  MINIMIZE
Selected RHS        name:  rhs
Selected bound      name:  bnd
Version identifier: 22.1.2.0 | 2024-11-26 | 0edbb82fd
CPXPARAM_Threads                                 8
CPXPARAM_Parallel                                1
CPXPARAM_MIP_Cuts_Cliques                        -1
CPXPARAM_MIP_Strategy_NodeSelect                 0
CPXPARAM_MIP_Cuts_FlowCovers                     2
CPXPARAM_MIP_Cuts_Implied                        1
CPXPARAM_MIP_Limits_GomoryCand                   25
CPXPARAM_MIP_Cuts_Gomory                         1
CPXPARAM_MIP_Cuts_PathCut                        1
CPXPARAM_MIP_Cuts_Disjunctive                    -1
CPXPARAM_Emphasis_MIP                            4
CPXPARAM_DetTimeLimit                            10000
Tried aggregator 3 times.
MIP Presolve eliminated 30810 rows and 1362 columns.
MIP Presolve modified 22293 coefficients.
Aggregator did 232 substitutions.
Reduced MIP has 11638 rows, 3580 columns, and 46688 nonzeros.
Reduced MIP has 1625 binaries, 0 generals, 0 SOSs, and 0 indicators.
Presolve time = 0.10 sec. (139.58 ticks)
Found incumbent of value 533875.101733 after 0.12 sec. (154.72 ticks)
Probing fixed 392 vars, tightened 1078 bounds.
Probing changed sense of 113 constraints.
Probing time = 0.08 sec. (90.30 ticks)
Cover probing fixed 0 vars, tightened 267 bounds.
Tried aggregator 2 times.
MIP Presolve eliminated 3295 rows and 847 columns.
MIP Presolve modified 7082 coefficients.
Aggregator did 11 substitutions.
Reduced MIP has 8332 rows, 2722 columns, and 31418 nonzeros.
Reduced MIP has 1168 binaries, 0 generals, 0 SOSs, and 0 indicators.
Presolve time = 0.04 sec. (44.43 ticks)
Probing fixed 1 vars, tightened 256 bounds.
Probing time = 0.05 sec. (44.20 ticks)
Cover probing fixed 0 vars, tightened 190 bounds.
Tried aggregator 1 time.
Detecting symmetries...
MIP Presolve eliminated 26 rows and 2 columns.
MIP Presolve modified 5059 coefficients.
Reduced MIP has 8306 rows, 2720 columns, and 31355 nonzeros.
Reduced MIP has 1167 binaries, 0 generals, 0 SOSs, and 0 indicators.
Presolve time = 0.02 sec. (22.06 ticks)
Probing fixed 0 vars, tightened 90 bounds.
Probing time = 0.05 sec. (40.55 ticks)
Cover probing fixed 0 vars, tightened 69 bounds.
Clique table members: 18692.
MIP emphasis: hidden feasible solutions.
MIP search method: dynamic search.
Parallel mode: deterministic, using up to 8 threads.
Root relaxation solution time = 0.11 sec. (144.31 ticks)

        Nodes                                         Cuts/
   Node  Left     Objective  IInf  Best Integer    Best Bound    ItCnt     Gap

*     0+    0                       533875.1017    44880.8652            91.59%
*     0+    0                       533847.9795    44880.8652            91.59%
*     0+    0                       333826.8649    44880.8652            86.56%
*     0+    0                       333809.0666    44880.8652            86.55%
      0     0    79213.0345   216   333809.0666    79213.0345     1531   76.27%
      0     0    96254.6467   297   333809.0666     Cuts: 174     2064   71.16%
      0     0    96260.5560   272   333809.0666      Cuts: 81     2379   71.16%
      0     0    96261.7287   286   333809.0666      Cuts: 29     2510   71.16%
*     0+    0                       320982.4254    96261.7287            70.01%
      0     0  -1.00000e+75     0   320982.4254    96261.7287     2510   70.01%
      0     0    96272.4517   273   320982.4254      Cuts: 11     2614   70.01%
      0     0    96274.5936   256   320982.4254      Cuts: 25     2665   70.01%
Detecting symmetries...
      0     0    96276.5688   258   320982.4254      Cuts: 28     2717   70.01%
Detecting symmetries...
      0     2    96276.5688   258   320982.4254    96276.5688     2717   70.01%
Elapsed time = 3.35 sec. (5383.03 ticks, tree = 0.02 MB, solutions = 5)
     24    14    96331.9771   289   320982.4254    96287.3917     4109   70.00%
     71    50   105920.7189   178   320982.4254    96287.3917     9034   70.00%
    104    91   111260.5046   178   320982.4254    96287.3917    13789   70.00%
    145   135   109130.2823   167   320982.4254    96287.3917    17292   70.00%
    256   186   115559.9890   154   320982.4254    96287.3917    20649   70.00%
    301   154   121940.6878   154   320982.4254    96287.3917    17801   70.00%
*   318+  223                       134814.6471    96287.3917            28.58%
    354   280   115548.6046   164   134814.6471    96287.3917    23305   28.58%
    418   319   134800.5126    98   134814.6471    96287.3917    26136   28.58%
    486   339   134809.4638    18   134814.6471    96287.3917    27280   28.58%
*   561+  441                       128402.9404    96287.3917            25.01%
*   583+  441                       128402.2594    96287.3917            25.01%
    751   411   125218.0218    65   128402.2594    96287.3917    38353   25.01%
Elapsed time = 5.26 sec. (8499.01 ticks, tree = 1.75 MB, solutions = 10)
*   756+  381                       121984.3014    96287.3917            21.07%
   1068   378   115588.1737    78   121984.3014    96287.3917    48499   21.07%
*  1072+  306                       115571.5587    96287.3917            16.69%
*  1246+  250                       115568.3114    96287.3917            16.68%

Implied bound cuts applied:  2
Flow cuts applied:  117
Flow path cuts applied:  0
Zero-half cuts applied:  41
Gomory fractional cuts applied:  4

Root node processing (before b&c):
  Real time             =    3.33 sec. (5351.62 ticks)
Parallel b&c, 8 threads:
  Real time             =    2.89 sec. (4658.20 ticks)
  Sync time (average)   =    0.36 sec.
  Wait time (average)   =    0.00 sec.
                          ------------
Total (root+branch&cut) =    6.22 sec. (10009.82 ticks)
Gap: 16.68%
Upper bound: 115568
Lower bound: 96287.4
End of CPLEX run. Time: 6.22185 seconds

===== New CPLEX run =====
Instance: /home/yorig/tuner/mpils-tests/instances/miplib/medium-1/momentum1.mps
Config: /scratch/yorig/mpils-results-grid-ticks-10000/medium-1/16proc/seed-5/6_momentum1_seed-5_20260425_215516/expansion/config_param_CPXPARAM_MIP_Strategy_NodeSelect_2_iter_1.prm
========================

Selected objective sense:  MINIMIZE
Selected objective  name:  MINIMIZE
Selected RHS        name:  rhs
Selected bound      name:  bnd
Version identifier: 22.1.2.0 | 2024-11-26 | 0edbb82fd
CPXPARAM_Threads                                 8
CPXPARAM_Parallel                                1
CPXPARAM_MIP_Cuts_Cliques                        -1
CPXPARAM_MIP_Strategy_NodeSelect                 2
CPXPARAM_MIP_Cuts_FlowCovers                     2
CPXPARAM_MIP_Cuts_Implied                        1
CPXPARAM_MIP_Limits_GomoryCand                   25
CPXPARAM_MIP_Cuts_Gomory                         1
CPXPARAM_MIP_Cuts_PathCut                        1
CPXPARAM_MIP_Cuts_Disjunctive                    -1
CPXPARAM_Emphasis_MIP                            4
CPXPARAM_DetTimeLimit                            10000
Tried aggregator 3 times.
MIP Presolve eliminated 30810 rows and 1362 columns.
MIP Presolve modified 22293 coefficients.
Aggregator did 232 substitutions.
Reduced MIP has 11638 rows, 3580 columns, and 46688 nonzeros.
Reduced MIP has 1625 binaries, 0 generals, 0 SOSs, and 0 indicators.
Presolve time = 0.10 sec. (139.58 ticks)
Found incumbent of value 533875.101733 after 0.12 sec. (154.72 ticks)
Probing fixed 392 vars, tightened 1078 bounds.
Probing changed sense of 113 constraints.
Probing time = 0.08 sec. (90.30 ticks)
Cover probing fixed 0 vars, tightened 267 bounds.
Tried aggregator 2 times.
MIP Presolve eliminated 3295 rows and 847 columns.
MIP Presolve modified 7082 coefficients.
Aggregator did 11 substitutions.
Reduced MIP has 8332 rows, 2722 columns, and 31418 nonzeros.
Reduced MIP has 1168 binaries, 0 generals, 0 SOSs, and 0 indicators.
Presolve time = 0.04 sec. (44.43 ticks)
Probing fixed 1 vars, tightened 256 bounds.
Probing time = 0.05 sec. (44.20 ticks)
Cover probing fixed 0 vars, tightened 190 bounds.
Tried aggregator 1 time.
Detecting symmetries...
MIP Presolve eliminated 26 rows and 2 columns.
MIP Presolve modified 5059 coefficients.
Reduced MIP has 8306 rows, 2720 columns, and 31355 nonzeros.
Reduced MIP has 1167 binaries, 0 generals, 0 SOSs, and 0 indicators.
Presolve time = 0.02 sec. (22.06 ticks)
Probing fixed 0 vars, tightened 90 bounds.
Probing time = 0.05 sec. (40.55 ticks)
Cover probing fixed 0 vars, tightened 69 bounds.
Clique table members: 18692.
MIP emphasis: hidden feasible solutions.
MIP search method: dynamic search.
Parallel mode: deterministic, using up to 8 threads.
Root relaxation solution time = 0.11 sec. (144.31 ticks)

        Nodes                                         Cuts/
   Node  Left     Objective  IInf  Best Integer    Best Bound    ItCnt     Gap

*     0+    0                       533875.1017    44880.8652            91.59%
*     0+    0                       533847.9795    44880.8652            91.59%
*     0+    0                       333826.8649    44880.8652            86.56%
*     0+    0                       333809.0666    44880.8652            86.55%
      0     0    79213.0345   216   333809.0666    79213.0345     1531   76.27%
      0     0    96254.6467   297   333809.0666     Cuts: 174     2064   71.16%
      0     0    96260.5560   272   333809.0666      Cuts: 81     2379   71.16%
      0     0    96261.7287   286   333809.0666      Cuts: 29     2510   71.16%
*     0+    0                       320982.4254    96261.7287            70.01%
      0     0  -1.00000e+75     0   320982.4254    96261.7287     2510   70.01%
      0     0    96272.4517   273   320982.4254      Cuts: 11     2614   70.01%
      0     0    96274.5936   256   320982.4254      Cuts: 25     2665   70.01%
Detecting symmetries...
      0     0    96276.5688   258   320982.4254      Cuts: 28     2717   70.01%
Detecting symmetries...
      0     2    96276.5688   258   320982.4254    96276.5688     2717   70.01%
Elapsed time = 3.35 sec. (5383.03 ticks, tree = 0.02 MB, solutions = 5)
     24    19    96304.3354   252   320982.4254    96287.3917     4910   70.00%
     45    21   101512.6196   245   320982.4254    96287.3917     6050   70.00%
     62    53    96330.1022   274   320982.4254    96287.3917    13458   70.00%
     83    80    97340.5147   250   320982.4254    96287.3917    17135   70.00%
    109    96   115591.8952   100   320982.4254    96287.3917    19541   70.00%
    152   126   102799.5546   180   320982.4254    96287.3917    23821   70.00%
    200   148   102813.2799   235   320982.4254    96287.3917    27207   70.00%
    233   207   102742.1419   170   320982.4254    96287.3917    34557   70.00%
    278   249   109179.5651    79   320982.4254    96287.3917    36929   70.00%
*   354   302      integral     0   122106.9412    96287.3917    45774   21.15%
*   355   301      integral     0   122094.8359    96287.3917    45776   21.14%
    535   432   122081.9965   101   122094.8359    96287.3917    55167   21.14%
Elapsed time = 5.49 sec. (8584.88 ticks, tree = 1.00 MB, solutions = 7)
*   546+  408                       115654.5736    96287.3917            16.75%
    656   443   104155.9019   174   115654.5736    96287.3917    66172   16.75%

Implied bound cuts applied:  2
Flow cuts applied:  121
Flow path cuts applied:  0
Zero-half cuts applied:  43
Gomory fractional cuts applied:  4

Root node processing (before b&c):
  Real time             =    3.32 sec. (5351.05 ticks)
Parallel b&c, 8 threads:
  Real time             =    3.18 sec. (4670.16 ticks)
  Sync time (average)   =    0.45 sec.
  Wait time (average)   =    0.00 sec.
                          ------------
Total (root+branch&cut) =    6.50 sec. (10021.21 ticks)
Gap: 16.75%
Upper bound: 115655
Lower bound: 96287.4
End of CPLEX run. Time: 6.50526 seconds

===== New CPLEX run =====
Instance: /home/yorig/tuner/mpils-tests/instances/miplib/medium-1/momentum1.mps
Config: /scratch/yorig/mpils-results-grid-ticks-10000/medium-1/16proc/seed-5/6_momentum1_seed-5_20260425_215516/expansion/config_param_CPXPARAM_MIP_Strategy_NodeSelect_3_iter_1.prm
========================

Selected objective sense:  MINIMIZE
Selected objective  name:  MINIMIZE
Selected RHS        name:  rhs
Selected bound      name:  bnd
Version identifier: 22.1.2.0 | 2024-11-26 | 0edbb82fd
CPXPARAM_Threads                                 8
CPXPARAM_Parallel                                1
CPXPARAM_MIP_Cuts_Cliques                        -1
CPXPARAM_MIP_Strategy_NodeSelect                 3
CPXPARAM_MIP_Cuts_FlowCovers                     2
CPXPARAM_MIP_Cuts_Implied                        1
CPXPARAM_MIP_Limits_GomoryCand                   25
CPXPARAM_MIP_Cuts_Gomory                         1
CPXPARAM_MIP_Cuts_PathCut                        1
CPXPARAM_MIP_Cuts_Disjunctive                    -1
CPXPARAM_Emphasis_MIP                            4
CPXPARAM_DetTimeLimit                            10000
Tried aggregator 3 times.
MIP Presolve eliminated 30810 rows and 1362 columns.
MIP Presolve modified 22293 coefficients.
Aggregator did 232 substitutions.
Reduced MIP has 11638 rows, 3580 columns, and 46688 nonzeros.
Reduced MIP has 1625 binaries, 0 generals, 0 SOSs, and 0 indicators.
Presolve time = 0.10 sec. (139.58 ticks)
Found incumbent of value 533875.101733 after 0.12 sec. (154.72 ticks)
Probing fixed 392 vars, tightened 1078 bounds.
Probing changed sense of 113 constraints.
Probing time = 0.08 sec. (90.30 ticks)
Cover probing fixed 0 vars, tightened 267 bounds.
Tried aggregator 2 times.
MIP Presolve eliminated 3295 rows and 847 columns.
MIP Presolve modified 7082 coefficients.
Aggregator did 11 substitutions.
Reduced MIP has 8332 rows, 2722 columns, and 31418 nonzeros.
Reduced MIP has 1168 binaries, 0 generals, 0 SOSs, and 0 indicators.
Presolve time = 0.04 sec. (44.43 ticks)
Probing fixed 1 vars, tightened 256 bounds.
Probing time = 0.05 sec. (44.20 ticks)
Cover probing fixed 0 vars, tightened 190 bounds.
Tried aggregator 1 time.
Detecting symmetries...
MIP Presolve eliminated 26 rows and 2 columns.
MIP Presolve modified 5059 coefficients.
Reduced MIP has 8306 rows, 2720 columns, and 31355 nonzeros.
Reduced MIP has 1167 binaries, 0 generals, 0 SOSs, and 0 indicators.
Presolve time = 0.02 sec. (22.06 ticks)
Probing fixed 0 vars, tightened 90 bounds.
Probing time = 0.05 sec. (40.55 ticks)
Cover probing fixed 0 vars, tightened 69 bounds.
Clique table members: 18692.
MIP emphasis: hidden feasible solutions.
MIP search method: dynamic search.
Parallel mode: deterministic, using up to 8 threads.
Root relaxation solution time = 0.11 sec. (144.31 ticks)

        Nodes                                         Cuts/
   Node  Left     Objective  IInf  Best Integer    Best Bound    ItCnt     Gap

*     0+    0                       533875.1017    44880.8652            91.59%
*     0+    0                       533847.9795    44880.8652            91.59%
*     0+    0                       333826.8649    44880.8652            86.56%
*     0+    0                       333809.0666    44880.8652            86.55%
      0     0    79213.0345   216   333809.0666    79213.0345     1531   76.27%
      0     0    96254.6467   297   333809.0666     Cuts: 174     2064   71.16%
      0     0    96260.5560   272   333809.0666      Cuts: 81     2379   71.16%
      0     0    96261.7287   286   333809.0666      Cuts: 29     2510   71.16%
*     0+    0                       320982.4254    96261.7287            70.01%
      0     0  -1.00000e+75     0   320982.4254    96261.7287     2510   70.01%
      0     0    96272.4517   273   320982.4254      Cuts: 11     2614   70.01%
      0     0    96274.5936   256   320982.4254      Cuts: 25     2665   70.01%
Detecting symmetries...
      0     0    96276.5688   258   320982.4254      Cuts: 28     2717   70.01%
Detecting symmetries...
      0     2    96276.5688   258   320982.4254    96276.5688     2717   70.01%
Elapsed time = 3.25 sec. (5383.03 ticks, tree = 0.02 MB, solutions = 5)
     24    19    96304.3354   252   320982.4254    96287.3917     4910   70.00%
     45    21   101512.6196   245   320982.4254    96287.3917     6050   70.00%
     62    53    96330.1022   274   320982.4254    96287.3917    13458   70.00%
     83    80    97340.5147   250   320982.4254    96287.3917    17135   70.00%
    109    96   115591.8952   100   320982.4254    96287.3917    19541   70.00%
    152   126   102799.5546   180   320982.4254    96287.3917    23821   70.00%
    200   148   102813.2799   235   320982.4254    96287.3917    27207   70.00%
    233   207   102742.1419   170   320982.4254    96287.3917    34557   70.00%
    278   249   109179.5651    79   320982.4254    96287.3917    36929   70.00%
*   354   302      integral     0   122106.9412    96287.3917    45774   21.15%
*   355   301      integral     0   122094.8359    96287.3917    45776   21.14%
*   560+  404                       122082.4680    96287.3917            21.13%
    600   468   115657.0802    59   122082.4680    96287.3917    55263   21.13%
Elapsed time = 5.11 sec. (8589.00 ticks, tree = 1.09 MB, solutions = 8)
*   613+  421                       115661.9051    96287.3917            16.75%
    753   428   102753.2994   239   115661.9051    96287.3917    67048   16.75%
*   830+  411                       115616.3152    96287.3917            16.72%

Implied bound cuts applied:  2
Flow cuts applied:  118
Flow path cuts applied:  0
Zero-half cuts applied:  41
Gomory fractional cuts applied:  4

Root node processing (before b&c):
  Real time             =    3.22 sec. (5351.24 ticks)
Parallel b&c, 8 threads:
  Real time             =    2.75 sec. (4660.60 ticks)
  Sync time (average)   =    0.37 sec.
  Wait time (average)   =    0.00 sec.
                          ------------
Total (root+branch&cut) =    5.98 sec. (10011.84 ticks)
Gap: 16.72%
Upper bound: 115616
Lower bound: 96287.4
End of CPLEX run. Time: 5.97728 seconds
